succeed=True
[CUDA] cuda: usage: 5.77 GB
0 :  {link #0 : 1}, {link #1 : 2}, {link #2 : 3},
1 :  {link #0 : 2}, {link #1 : 3}, {link #2 : 0},
2 :  {link #0 : 3}, {link #1 : 0}, {link #2 : 1},
3 :  {link #0 : 0}, {link #1 : 1}, {link #2 : 2},
0 :  {link #0 : 1}, {link #1 : 2}, {link #2 : 3},
1 :  {link #0 : 2}, {link #1 : 3}, {link #2 : 0},
2 :  {link #0 : 3}, {link #1 : 0}, {link #2 : 1},
3 :  {link #0 : 0}, {link #1 : 1}, {link #2 : 2},
0 :  {link #0 : 1}, {link #1 : 2}, {link #2 : 3},
1 :  {link #0 : 2}, {link #1 : 3}, {link #2 : 0},
2 :  {link #0 : 3}, {link #1 : 0}, {link #2 : 1},
3 :  {link #0 : 0}, {link #1 : 1}, {link #2 : 2},
0 : local 72, cpu 8 {link #0 : g1 24}, {link #1 : g2 24}, {link #2 : g3 24},
1 : local 72, cpu 8 {link #0 : g2 24}, {link #1 : g3 24}, {link #2 : g0 24},
2 : local 72, cpu 8 {link #0 : g3 24}, {link #1 : g0 24}, {link #2 : g1 24},
3 : local 72, cpu 8 {link #0 : g0 24}, {link #1 : g1 24}, {link #2 : g2 24},
0 : local 72, cpu 8 {link #0 : g1 24}, {link #1 : g2 24}, {link #2 : g3 24},
1 : local 72, cpu 8 {link #0 : g2 24}, {link #1 : g3 24}, {link #2 : g0 24},
2 : local 72, cpu 8 {link #0 : g3 24}, {link #1 : g0 24}, {link #2 : g1 24},
3 : local 72, cpu 8 {link #0 : g0 24}, {link #1 : g1 24}, {link #2 : g2 24},
0 : local 72, cpu 8 {link #0 : g1 24}, {link #1 : g2 24}, {link #2 : g3 24},
1 : local 72, cpu 8 {link #0 : g2 24}, {link #1 : g3 24}, {link #2 : g0 24},
2 : local 72, cpu 8 {link #0 : g3 24}, {link #1 : g0 24}, {link #2 : g1 24},
3 : local 72, cpu 8 {link #0 : g0 24}, {link #1 : g1 24}, {link #2 : g2 24},
0 :  {link #0 : 1}, {link #1 : 2}, {link #2 : 3},
1 :  {link #0 : 2}, {link #1 : 3}, {link #2 : 0},
2 :  {link #0 : 3}, {link #1 : 0}, {link #2 : 1},
3 :  {link #0 : 0}, {link #1 : 1}, {link #2 : 2},
0 : local 72, cpu 8 {link #0 : g1 24}, {link #1 : g2 24}, {link #2 : g3 24},
1 : local 72, cpu 8 {link #0 : g2 24}, {link #1 : g3 24}, {link #2 : g0 24},
2 : local 72, cpu 8 {link #0 : g3 24}, {link #1 : g0 24}, {link #2 : g1 24},
3 : local 72, cpu 8 {link #0 : g0 24}, {link #1 : g1 24}, {link #2 : g2 24},
Set parameter WLSAccessID
Set parameter WLSSecret
Set parameter LicenseID
Set parameter TimeLimit to value 200
Set parameter MIPGap to value 0.05
Set parameter LogFile to value "cppsolver.log"
Set parameter Threads to value 40
Academic license - for non-commercial use only - registered to xiaoniu.sxn@sjtu.edu.cn
Gurobi Optimizer version 9.5.1 build v9.5.1rc2 (linux64)
Thread count: 40 physical cores, 80 logical processors, using up to 40 threads
Academic license - for non-commercial use only - registered to xiaoniu.sxn@sjtu.edu.cn
Optimize a model with 7672 rows, 2504 columns and 23544 nonzeros
Model fingerprint: 0xce211673
Variable types: 5 continuous, 2499 integer (2499 binary)
Coefficient statistics:
  Matrix range     [2e-09, 1e+04]
  Objective range  [1e+00, 1e+00]
  Bounds range     [1e+00, 1e+00]
  RHS range        [1e+00, 4e+03]
Warning: Model contains large matrix coefficient range
         Consider reformulating model or setting NumericFocus parameter
         to avoid numerical issues.
Found heuristic solution: objective 2.000000e+09
Presolve removed 5716 rows and 430 columns
Presolve time: 0.02s
Presolved: 1956 rows, 2074 columns, 5856 nonzeros
Found heuristic solution: objective 18821.127760
Variable types: 0 continuous, 2074 integer (2074 binary)

Root relaxation: objective 1.386308e+04, 1533 iterations, 0.01 seconds (0.01 work units)

    Nodes    |    Current Node    |     Objective Bounds      |     Work
 Expl Unexpl |  Obj  Depth IntInf | Incumbent    BestBd   Gap | It/Node Time

     0     0 13863.0778    0   25 18821.1278 13863.0778  26.3%     -    0s
H    0     0                    14068.254290 13863.0778  1.46%     -    0s

Explored 1 nodes (2304 simplex iterations) in 0.06 seconds (0.04 work units)
Thread count was 40 (of 80 available processors)

Solution count 3: 14068.3 18821.1 2e+09 

Optimal solution found (tolerance 5.00e-02)
Best objective 1.406825428968e+04, best bound 1.386307777300e+04, gap 1.4584%
coll_cache:optimal_local_rate=0.116935,0.120193,0.105859,0.110261,
coll_cache:optimal_remote_rate=0.336314,0.333056,0.34739,0.342987,
coll_cache:optimal_cpu_rate=0.546751,0.546751,0.546751,0.546751,
z=14068.3
test_result:init:feat_nbytes=375030526464
test_result:init:cache_nbytes=4125335040
test_result:init:feat_nbytes=375030526464
test_result:init:cache_nbytes=4125335040
test_result:init:feat_nbytes=375030526464
test_result:init:cache_nbytes=4125335040
test_result:init:feat_nbytes=375030526464
test_result:init:cache_nbytes=4125335040
    [Step(average) Profiler Level 1 E3 S999]
        L1  sample           0.003337 | send           0.000000
        L1  recv             0.000000 | copy           0.066487 | convert time 0.000000 | train  0.023219
        L1  feature nbytes    1.36 GB | label nbytes 0.00 Bytes
        L1  id nbytes      0.00 Bytes | graph nbytes 0.00 Bytes
        L1  miss nbytes     772.80 MB | remote nbytes  466.29 MB
        L1  num nodes               0 | num samples           0
        L1  seq duration     0.000000 | refresh duration   0.000000
    [Step(average) Profiler Level 2 E3 S999]
        L2  shuffle     0.000000 | core sample  0.000000 | id remap        0.000000
        L2  graph copy  0.000000 | id copy      0.000000 | cache feat copy 0.066487
        L2  last layer sample time 0.000000 | size 0.000000
    [Step(average) Profiler Level 3 E3 S999]
        L3  khop sample coo  0.000000 | khop sort coo      0.000000 | khop count edge     0.000000 | khop compact edge 0.000000
        L3  walk sample coo  0.000000 | walk topk total    0.000000 | walk topk step1     0.000000 | walk topk step2   0.000000
        L3  walk topk step3  0.000000 | walk topk step4    0.000000 | walk topk step5     0.000000
        L3  walk topk step6  0.000000 | walk topk step7    0.000000
        L3  remap unique     0.000000 | remap populate     0.000000 | remap mapnode       0.000000 | remap mapedge     0.000000
        L3  cache get_index  0.000642 | cache copy_index   0.000000 | cache extract_miss  0.000000
        L3  cache copy_miss  0.000000 | cache combine_miss 0.065796 | cache combine cache 0.000358 | cache combine remote 0.004007
        L3  label extract  0.000000
    [Profiler Level Percentiles E3 S999]
        p50.00_tail_logl2featcopy=0.069383
        p90.00_tail_logl2featcopy=0.070149
        p95.00_tail_logl2featcopy=0.070351
        p99.00_tail_logl2featcopy=0.070770
        p99.90_tail_logl2featcopy=0.074138
[CUDA] cuda: usage: 15.64 GB
config:eval_tsp="2023-04-14 19:36:01"
config:num_worker=4
config:num_intra_size=4
config:root_dir=/nvme/songxiaoniu/graph-learning/wholegraph
config:graph_name=mag240m-homo
config:epochs=4
config:batchsize=2000
config:skip_epoch=2
config:local_step=250
config:presc_epoch=2
config:neighbors=10,25
config:hiddensize=256
config:num_layer=2
config:model=sage
config:framework=dgl
config:dataloaderworkers=0
config:dropout=0.5
config:lr=0.003
config:use_nccl=False
config:use_amp=True
config:use_collcache=True
config:cache_percentage=0.01
config:cache_policy=coll_cache_asymm_link
config:omp_thread_num=40
config:unsupervised=True
config:classnum=153
config:global_barrier=<multiprocessing.synchronize.Barrier object at 0x7fa1e6e7b460>
config:worker_id=0
creating_intra_node_communicator root=0, local_size=4, world_size=4
Rank=0, Graph loaded.
!!!!dist_homo_graph enumerate latency per epoch: 0.009949, per step: 0.000040
epoch=4 total_steps=1000
presamping
presamping takes 15.909404993057251
start training...
[Epoch 0], time=24.556825160980225, loss=0.6931472420692444
[Epoch 1], time=23.267264127731323, loss=0.6931472420692444
[Epoch 2], time=23.286600828170776, loss=0.6931472420692444
[Epoch 3], time=23.270427465438843, loss=0.6931472420692444
|===========================================================================|
|                  PyTorch CUDA memory summary, device ID 0                 |
|---------------------------------------------------------------------------|
|            CUDA OOMs: 0            |        cudaMalloc retries: 0         |
|===========================================================================|
|        Metric         | Cur Usage  | Peak Usage | Tot Alloc  | Tot Freed  |
|---------------------------------------------------------------------------|
| Allocated memory      |   89360 KB |  722950 KB |    1936 GB |    1936 GB |
|       from large pool |   77576 KB |  711772 KB |    1917 GB |    1917 GB |
|       from small pool |   11783 KB |   14126 KB |      19 GB |      19 GB |
|---------------------------------------------------------------------------|
| Active memory         |   89360 KB |  722950 KB |    1936 GB |    1936 GB |
|       from large pool |   77576 KB |  711772 KB |    1917 GB |    1917 GB |
|       from small pool |   11783 KB |   14126 KB |      19 GB |      19 GB |
|---------------------------------------------------------------------------|
| GPU reserved memory   |    2298 MB |    2298 MB |    2298 MB |       0 B  |
|       from large pool |    2280 MB |    2280 MB |    2280 MB |       0 B  |
|       from small pool |      18 MB |      18 MB |      18 MB |       0 B  |
|---------------------------------------------------------------------------|
| Non-releasable memory |   21232 KB |    1537 MB |    1427 GB |    1427 GB |
|       from large pool |   18679 KB |    1534 MB |    1406 GB |    1406 GB |
|       from small pool |    2552 KB |       5 MB |      20 GB |      20 GB |
|---------------------------------------------------------------------------|
| Allocations           |      62    |      81    |  213805    |  213743    |
|       from large pool |      15    |      26    |   71519    |   71504    |
|       from small pool |      47    |      58    |  142286    |  142239    |
|---------------------------------------------------------------------------|
| Active allocs         |      62    |      81    |  213805    |  213743    |
|       from large pool |      15    |      26    |   71519    |   71504    |
|       from small pool |      47    |      58    |  142286    |  142239    |
|---------------------------------------------------------------------------|
| GPU reserved segments |      24    |      24    |      24    |       0    |
|       from large pool |      15    |      15    |      15    |       0    |
|       from small pool |       9    |       9    |       9    |       0    |
|---------------------------------------------------------------------------|
| Non-releasable allocs |      21    |      37    |   77014    |   76993    |
|       from large pool |       5    |      18    |   39850    |   39845    |
|       from small pool |      16    |      25    |   37164    |   37148    |
|---------------------------------------------------------------------------|
| Oversize allocations  |       0    |       0    |       0    |       0    |
|---------------------------------------------------------------------------|
| Oversize GPU segments |       0    |       0    |       0    |       0    |
|===========================================================================|

[TRAIN_TIME] train time is 94.382443 seconds
[EPOCH_TIME] 23.595611 seconds, maybe large due to not enough epoch skipped.
[EPOCH_TIME] 23.278665 seconds
Rank=2, Graph loaded.
!!!!dist_homo_graph enumerate latency per epoch: 0.011818, per step: 0.000047
presamping
presamping takes 16.239091157913208
Rank=1, Graph loaded.
!!!!dist_homo_graph enumerate latency per epoch: 0.014878, per step: 0.000060
presamping
presamping takes 15.851144790649414
Rank=3, Graph loaded.
!!!!dist_homo_graph enumerate latency per epoch: 0.010963, per step: 0.000044
presamping
presamping takes 9.771290302276611

